nK = 1329;
nT = 6;
nI = 14;
L = 35;
TT = 305;
np = 1;
nc = 3;
b = [36, 54, 56, 64, 37, 37, 58, 20, 48, 22, 61, 56, 64, 33];
d = [122, 142, 136, 107, 79, 134, 119, 76, 134, 99, 105, 120, 141, 137];
m = [1.8, 2.5, 1, 1.4, 2.1, 2.5, 1.2, 2.5, 2.3, 1.5, 1, 2.5, 2.5, 2.5];
pt = [0.35, 0.34, 0.24, 0.3, 0.22, 0.34];
st = [20.65, 19.38, 13.44, 15.6, 12.54, 20.4];
arc = {<1, 0, 1, 1, 0, 0, 0, [1, 1, 1, 1, 1, 1]>, <2, 1, 2, 1, 0, 0, 0, [1, 1, 1, 1, 1, 1]>, <3, 2, 3, 1, 0, 0, 0, [1, 1, 1, 1, 1, 1]>, <4, 3, 4, 1, 0, 0, 0, [1, 1, 1, 1, 1, 1]>, <5, 4, 5, 1, 0, 0, 0, [1, 1, 1, 1, 1, 1]>, <6, 5, 6, 1, 0, 0, 0, [1, 1, 1, 1, 1, 1]>, <7, 6, 7, 1, 0, 0, 0, [1, 1, 1, 1, 1, 1]>, <8, 7, 8, 1, 0, 0, 0, [1, 1, 1, 1, 1, 1]>, <9, 8, 9, 1, 0, 0, 0, [1, 1, 1, 1, 1, 1]>, <10, 9, 10, 1, 0, 0, 0, [1, 1, 1, 1, 1, 1]>, <11, 10, 11, 1, 0, 0, 0, [1, 1, 1, 1, 1, 1]>, <12, 11, 12, 1, 0, 0, 0, [1, 1, 1, 1, 1, 1]>, <13, 12, 13, 1, 0, 0, 0, [1, 1, 1, 1, 1, 1]>, <14, 13, 14, 1, 0, 0, 0, [1, 1, 1, 1, 1, 1]>, <15, 14, 15, 1, 0, 0, 0, [1, 1, 1, 1, 1, 1]>, <16, 15, 16, 1, 0, 0, 0, [1, 1, 1, 1, 1, 1]>, <17, 16, 17, 1, 0, 0, 0, [1, 1, 1, 1, 1, 1]>, <18, 17, 18, 1, 0, 0, 0, [1, 1, 1, 1, 1, 1]>, <19, 18, 19, 1, 0, 0, 0, [1, 1, 1, 1, 1, 1]>, <20, 19, 20, 1, 0, 0, 0, [1, 1, 1, 1, 1, 1]>, <21, 20, 21, 1, 0, 0, 0, [1, 1, 1, 1, 1, 1]>, <22, 21, 22, 1, 0, 0, 0, [1, 1, 1, 1, 1, 1]>, <23, 22, 23, 1, 0, 0, 0, [1, 1, 1, 1, 1, 1]>, <24, 23, 24, 1, 0, 0, 0, [1, 1, 1, 1, 1, 1]>, <25, 24, 25, 1, 0, 0, 0, [1, 1, 1, 1, 1, 1]>, <26, 25, 26, 1, 0, 0, 0, [1, 1, 1, 1, 1, 1]>, <27, 26, 27, 1, 0, 0, 0, [1, 1, 1, 1, 1, 1]>, <28, 27, 28, 1, 0, 0, 0, [1, 1, 1, 1, 1, 1]>, <29, 28, 29, 1, 0, 0, 0, [1, 1, 1, 1, 1, 1]>, <30, 29, 30, 1, 0, 0, 0, [1, 1, 1, 1, 1, 1]>, <31, 30, 31, 1, 0, 0, 0, [1, 1, 1, 1, 1, 1]>, <32, 31, 32, 1, 0, 0, 0, [1, 1, 1, 1, 1, 1]>, <33, 32, 33, 1, 0, 0, 0, [1, 1, 1, 1, 1, 1]>, <34, 33, 34, 1, 0, 0, 0, [1, 1, 1, 1, 1, 1]>, <35, 34, 35, 1, 0, 0, 0, [1, 1, 1, 1, 1, 1]>, <36, 3, 17, 14, 1, 0, 1, [1, 0, 0, 1, 1, 1]>, <37, 4, 18, 14, 1, 0, 1, [1, 0, 0, 1, 1, 1]>, <38, 5, 19, 14, 1, 0, 1, [1, 0, 0, 1, 1, 1]>, <39, 6, 20, 14, 1, 0, 1, [1, 0, 0, 1, 1, 1]>, <40, 12, 26, 14, 1, 0, 1, [1, 0, 0, 1, 1, 1]>, <41, 13, 27, 14, 1, 0, 1, [1, 0, 0, 1, 1, 1]>, <42, 14, 28, 14, 1, 0, 1, [1, 0, 0, 1, 1, 1]>, <43, 15, 29, 14, 1, 0, 1, [1, 0, 0, 1, 1, 1]>, <44, 17, 31, 14, 1, 0, 1, [1, 0, 0, 1, 1, 1]>, <45, 18, 32, 14, 1, 0, 1, [1, 0, 0, 1, 1, 1]>, <46, 19, 33, 14, 1, 0, 1, [1, 0, 0, 1, 1, 1]>, <47, 20, 34, 14, 1, 0, 1, [1, 0, 0, 1, 1, 1]>, <48, 21, 35, 14, 1, 0, 1, [1, 0, 0, 1, 1, 1]>, <49, 3, 17, 14, 2, 0, 1, [0, 0, 1, 1, 1, 1]>, <50, 4, 18, 14, 2, 0, 1, [0, 0, 1, 1, 1, 1]>, <51, 5, 19, 14, 2, 0, 1, [0, 0, 1, 1, 1, 1]>, <52, 6, 20, 14, 2, 0, 1, [0, 0, 1, 1, 1, 1]>, <53, 12, 26, 14, 2, 0, 1, [0, 0, 1, 1, 1, 1]>, <54, 13, 27, 14, 2, 0, 1, [0, 0, 1, 1, 1, 1]>, <55, 14, 28, 14, 2, 0, 1, [0, 0, 1, 1, 1, 1]>, <56, 15, 29, 14, 2, 0, 1, [0, 0, 1, 1, 1, 1]>, <57, 17, 31, 14, 2, 0, 1, [0, 0, 1, 1, 1, 1]>, <58, 18, 32, 14, 2, 0, 1, [0, 0, 1, 1, 1, 1]>, <59, 19, 33, 14, 2, 0, 1, [0, 0, 1, 1, 1, 1]>, <60, 20, 34, 14, 2, 0, 1, [0, 0, 1, 1, 1, 1]>, <61, 21, 35, 14, 2, 0, 1, [0, 0, 1, 1, 1, 1]>, <62, 3, 17, 14, 3, 0, 0, [1, 1, 1, 1, 0, 0]>, <63, 4, 18, 14, 3, 0, 0, [1, 1, 1, 1, 0, 0]>, <64, 5, 19, 14, 3, 0, 0, [1, 1, 1, 1, 0, 0]>, <65, 6, 20, 14, 3, 0, 0, [1, 1, 1, 1, 0, 0]>, <66, 12, 26, 14, 3, 0, 0, [1, 1, 1, 1, 0, 0]>, <67, 13, 27, 14, 3, 0, 0, [1, 1, 1, 1, 0, 0]>, <68, 14, 28, 14, 3, 0, 0, [1, 1, 1, 1, 0, 0]>, <69, 15, 29, 14, 3, 0, 0, [1, 1, 1, 1, 0, 0]>, <70, 17, 31, 14, 3, 0, 0, [1, 1, 1, 1, 0, 0]>, <71, 18, 32, 14, 3, 0, 0, [1, 1, 1, 1, 0, 0]>, <72, 19, 33, 14, 3, 0, 0, [1, 1, 1, 1, 0, 0]>, <73, 20, 34, 14, 3, 0, 0, [1, 1, 1, 1, 0, 0]>, <74, 21, 35, 14, 3, 0, 0, [1, 1, 1, 1, 0, 0]>, <75, 5, 14, 9, 4, 0, 1, [0, 1, 1, 1, 1, 0]>, <76, 6, 15, 9, 4, 0, 1, [0, 1, 1, 1, 1, 0]>, <77, 14, 23, 9, 4, 0, 1, [0, 1, 1, 1, 1, 0]>, <78, 15, 24, 9, 4, 0, 1, [0, 1, 1, 1, 1, 0]>, <79, 22, 31, 9, 4, 0, 1, [0, 1, 1, 1, 1, 0]>, <80, 23, 32, 9, 4, 0, 1, [0, 1, 1, 1, 1, 0]>, <81, 24, 33, 9, 4, 0, 1, [0, 1, 1, 1, 1, 0]>, <82, 5, 15, 10, 5, 1, 0, [0, 1, 1, 1, 1, 0]>, <83, 6, 16, 10, 5, 1, 0, [0, 1, 1, 1, 1, 0]>, <84, 14, 24, 10, 5, 1, 0, [0, 1, 1, 1, 1, 0]>, <85, 15, 25, 10, 5, 1, 0, [0, 1, 1, 1, 1, 0]>, <86, 21, 31, 10, 5, 1, 0, [0, 1, 1, 1, 1, 0]>, <87, 22, 32, 10, 5, 1, 0, [0, 1, 1, 1, 1, 0]>, <88, 23, 33, 10, 5, 1, 0, [0, 1, 1, 1, 1, 0]>, <89, 24, 34, 10, 5, 1, 0, [0, 1, 1, 1, 1, 0]>, <90, 5, 14, 9, 6, 1, 0, [1, 1, 1, 1, 0, 0]>, <91, 6, 15, 9, 6, 1, 0, [1, 1, 1, 1, 0, 0]>, <92, 14, 23, 9, 6, 1, 0, [1, 1, 1, 1, 0, 0]>, <93, 15, 24, 9, 6, 1, 0, [1, 1, 1, 1, 0, 0]>, <94, 22, 31, 9, 6, 1, 0, [1, 1, 1, 1, 0, 0]>, <95, 23, 32, 9, 6, 1, 0, [1, 1, 1, 1, 0, 0]>, <96, 24, 33, 9, 6, 1, 0, [1, 1, 1, 1, 0, 0]>, <97, 5, 14, 9, 7, 1, 0, [1, 0, 0, 1, 1, 1]>, <98, 6, 15, 9, 7, 1, 0, [1, 0, 0, 1, 1, 1]>, <99, 14, 23, 9, 7, 1, 0, [1, 0, 0, 1, 1, 1]>, <100, 15, 24, 9, 7, 1, 0, [1, 0, 0, 1, 1, 1]>, <101, 22, 31, 9, 7, 1, 0, [1, 0, 0, 1, 1, 1]>, <102, 23, 32, 9, 7, 1, 0, [1, 0, 0, 1, 1, 1]>, <103, 24, 33, 9, 7, 1, 0, [1, 0, 0, 1, 1, 1]>, <104, 5, 14, 9, 8, 0, 1, [1, 1, 1, 0, 0, 1]>, <105, 6, 15, 9, 8, 0, 1, [1, 1, 1, 0, 0, 1]>, <106, 14, 23, 9, 8, 0, 1, [1, 1, 1, 0, 0, 1]>, <107, 15, 24, 9, 8, 0, 1, [1, 1, 1, 0, 0, 1]>, <108, 22, 31, 9, 8, 0, 1, [1, 1, 1, 0, 0, 1]>, <109, 23, 32, 9, 8, 0, 1, [1, 1, 1, 0, 0, 1]>, <110, 24, 33, 9, 8, 0, 1, [1, 1, 1, 0, 0, 1]>, <111, 2, 17, 15, 9, 0, 0, [0, 0, 1, 1, 1, 1]>, <112, 3, 18, 15, 9, 0, 0, [0, 0, 1, 1, 1, 1]>, <113, 4, 19, 15, 9, 0, 0, [0, 0, 1, 1, 1, 1]>, <114, 5, 20, 15, 9, 0, 0, [0, 0, 1, 1, 1, 1]>, <115, 6, 21, 15, 9, 0, 0, [0, 0, 1, 1, 1, 1]>, <116, 11, 26, 15, 9, 0, 0, [0, 0, 1, 1, 1, 1]>, <117, 12, 27, 15, 9, 0, 0, [0, 0, 1, 1, 1, 1]>, <118, 13, 28, 15, 9, 0, 0, [0, 0, 1, 1, 1, 1]>, <119, 14, 29, 15, 9, 0, 0, [0, 0, 1, 1, 1, 1]>, <120, 15, 30, 15, 9, 0, 0, [0, 0, 1, 1, 1, 1]>, <121, 16, 31, 15, 9, 0, 0, [0, 0, 1, 1, 1, 1]>, <122, 17, 32, 15, 9, 0, 0, [0, 0, 1, 1, 1, 1]>, <123, 18, 33, 15, 9, 0, 0, [0, 0, 1, 1, 1, 1]>, <124, 19, 34, 15, 9, 0, 0, [0, 0, 1, 1, 1, 1]>, <125, 20, 35, 15, 9, 0, 0, [0, 0, 1, 1, 1, 1]>, <126, 4, 17, 13, 10, 0, 1, [1, 1, 0, 0, 1, 1]>, <127, 5, 18, 13, 10, 0, 1, [1, 1, 0, 0, 1, 1]>, <128, 6, 19, 13, 10, 0, 1, [1, 1, 0, 0, 1, 1]>, <129, 13, 26, 13, 10, 0, 1, [1, 1, 0, 0, 1, 1]>, <130, 14, 27, 13, 10, 0, 1, [1, 1, 0, 0, 1, 1]>, <131, 15, 28, 13, 10, 0, 1, [1, 1, 0, 0, 1, 1]>, <132, 18, 31, 13, 10, 0, 1, [1, 1, 0, 0, 1, 1]>, <133, 19, 32, 13, 10, 0, 1, [1, 1, 0, 0, 1, 1]>, <134, 20, 33, 13, 10, 0, 1, [1, 1, 0, 0, 1, 1]>, <135, 21, 34, 13, 10, 0, 1, [1, 1, 0, 0, 1, 1]>, <136, 22, 35, 13, 10, 0, 1, [1, 1, 0, 0, 1, 1]>, <137, 5, 17, 12, 11, 0, 0, [0, 1, 1, 1, 1, 0]>, <138, 6, 18, 12, 11, 0, 0, [0, 1, 1, 1, 1, 0]>, <139, 14, 26, 12, 11, 0, 0, [0, 1, 1, 1, 1, 0]>, <140, 15, 27, 12, 11, 0, 0, [0, 1, 1, 1, 1, 0]>, <141, 19, 31, 12, 11, 0, 0, [0, 1, 1, 1, 1, 0]>, <142, 20, 32, 12, 11, 0, 0, [0, 1, 1, 1, 1, 0]>, <143, 21, 33, 12, 11, 0, 0, [0, 1, 1, 1, 1, 0]>, <144, 22, 34, 12, 11, 0, 0, [0, 1, 1, 1, 1, 0]>, <145, 23, 35, 12, 11, 0, 0, [0, 1, 1, 1, 1, 0]>, <146, 3, 17, 14, 12, 1, 0, [1, 1, 1, 1, 0, 0]>, <147, 4, 18, 14, 12, 1, 0, [1, 1, 1, 1, 0, 0]>, <148, 5, 19, 14, 12, 1, 0, [1, 1, 1, 1, 0, 0]>, <149, 6, 20, 14, 12, 1, 0, [1, 1, 1, 1, 0, 0]>, <150, 12, 26, 14, 12, 1, 0, [1, 1, 1, 1, 0, 0]>, <151, 13, 27, 14, 12, 1, 0, [1, 1, 1, 1, 0, 0]>, <152, 14, 28, 14, 12, 1, 0, [1, 1, 1, 1, 0, 0]>, <153, 15, 29, 14, 12, 1, 0, [1, 1, 1, 1, 0, 0]>, <154, 17, 31, 14, 12, 1, 0, [1, 1, 1, 1, 0, 0]>, <155, 18, 32, 14, 12, 1, 0, [1, 1, 1, 1, 0, 0]>, <156, 19, 33, 14, 12, 1, 0, [1, 1, 1, 1, 0, 0]>, <157, 20, 34, 14, 12, 1, 0, [1, 1, 1, 1, 0, 0]>, <158, 21, 35, 14, 12, 1, 0, [1, 1, 1, 1, 0, 0]>, <159, 2, 17, 15, 13, 0, 0, [0, 0, 1, 1, 1, 1]>, <160, 3, 18, 15, 13, 0, 0, [0, 0, 1, 1, 1, 1]>, <161, 4, 19, 15, 13, 0, 0, [0, 0, 1, 1, 1, 1]>, <162, 5, 20, 15, 13, 0, 0, [0, 0, 1, 1, 1, 1]>, <163, 6, 21, 15, 13, 0, 0, [0, 0, 1, 1, 1, 1]>, <164, 11, 26, 15, 13, 0, 0, [0, 0, 1, 1, 1, 1]>, <165, 12, 27, 15, 13, 0, 0, [0, 0, 1, 1, 1, 1]>, <166, 13, 28, 15, 13, 0, 0, [0, 0, 1, 1, 1, 1]>, <167, 14, 29, 15, 13, 0, 0, [0, 0, 1, 1, 1, 1]>, <168, 15, 30, 15, 13, 0, 0, [0, 0, 1, 1, 1, 1]>, <169, 16, 31, 15, 13, 0, 0, [0, 0, 1, 1, 1, 1]>, <170, 17, 32, 15, 13, 0, 0, [0, 0, 1, 1, 1, 1]>, <171, 18, 33, 15, 13, 0, 0, [0, 0, 1, 1, 1, 1]>, <172, 19, 34, 15, 13, 0, 0, [0, 0, 1, 1, 1, 1]>, <173, 20, 35, 15, 13, 0, 0, [0, 0, 1, 1, 1, 1]>, <174, 3, 17, 14, 14, 0, 0, [0, 1, 1, 1, 1, 0]>, <175, 4, 18, 14, 14, 0, 0, [0, 1, 1, 1, 1, 0]>, <176, 5, 19, 14, 14, 0, 0, [0, 1, 1, 1, 1, 0]>, <177, 6, 20, 14, 14, 0, 0, [0, 1, 1, 1, 1, 0]>, <178, 12, 26, 14, 14, 0, 0, [0, 1, 1, 1, 1, 0]>, <179, 13, 27, 14, 14, 0, 0, [0, 1, 1, 1, 1, 0]>, <180, 14, 28, 14, 14, 0, 0, [0, 1, 1, 1, 1, 0]>, <181, 15, 29, 14, 14, 0, 0, [0, 1, 1, 1, 1, 0]>, <182, 17, 31, 14, 14, 0, 0, [0, 1, 1, 1, 1, 0]>, <183, 18, 32, 14, 14, 0, 0, [0, 1, 1, 1, 1, 0]>, <184, 19, 33, 14, 14, 0, 0, [0, 1, 1, 1, 1, 0]>, <185, 20, 34, 14, 14, 0, 0, [0, 1, 1, 1, 1, 0]>, <186, 21, 35, 14, 14, 0, 0, [0, 1, 1, 1, 1, 0]>};
